Route #1: 51 45 3 54 20 60 66 42 
Route #2: 9 4 61 39 55 33 48 36 41 14 
Route #3: 58 52 24 21 67 38 26 23 77 
Route #4: 8 15 34 46 32 73 76 
Route #5: 2 6 62 25 10 44 
Route #6: 50 19 74 35 59 13 28 
Route #7: 47 12 31 57 29 5 
Route #8: 1 69 71 22 7 65 56 43 72 17 
Route #9: 27 75 49 63 30 70 37 
Route #10: 16 18 68 53 40 64 11 
cost 1550.18
execution_time 38.783
